clingo version 5.4.0
Reading from merger/Adrian/merge.lp ...
Solving...
Answer: 1
occurs(object(robot,1),action(move,(1,0)),1). occurs(object(robot,4),action(move,(0,-1)),1). occurs(object(robot,3),action(move,(-1,0)),1). occurs(object(robot,2),action(move,(0,1)),1). occurs(object(robot,4),action(move,(0,-1)),2). occurs(object(robot,4),action(move,(0,-1)),3). occurs(object(robot,4),action(move,(0,-1)),4). occurs(object(robot,3),action(move,(-1,0)),3). occurs(object(robot,3),action(move,(-1,0)),4). occurs(object(robot,2),action(move,(0,1)),5). occurs(object(robot,3),action(move,(-1,0)),5). occurs(object(robot,1),action(move,(0,1)),4). occurs(object(robot,2),action(move,(1,0)),4). occurs(object(robot,1),action(move,(0,-1)),2). occurs(object(robot,1),action(move,(0,1)),3). occurs(object(robot,2),action(move,(-1,0)),3). occurs(object(robot,1),action(move,(0,-1)),5). occurs(object(robot,2),action(move,(0,1)),7). occurs(object(robot,1),action(move,(1,0)),7). occurs(object(robot,1),action(move,(1,0)),6). occurs(object(robot,2),action(move,(0,1)),6). occurs(object(robot,1),action(move,(1,0)),8).
Optimization: 5
OPTIMUM FOUND

Models       : 1
  Optimum    : yes
Optimization : 5
Calls        : 1
Time         : 4.979s (Solving: 4.14s 1st Model: 0.15s Unsat: 3.99s)
CPU Time     : 4.949s
